s td 71 54 377
b 1 9 49 76 84 90 96 109 119 161 168 174 181 189 200 205 219 232 267 291 301 313 327 337 361 374
b 2 1 2 27 30 58 69 93 123 139 140 183 192 227 233 236 261 264 276 286 302 318 321 322 336 346 349
b 3 11 12 37 48 63 75 126 129 228 247 250 272 280 281 306 314 324 334
b 4 110 140 193 235
b 5 6 25 81 92 137 166 169 172 220 237 240 248 251 253 254 260 262 270 274 284 287 300 341 350 372
b 6 110 140 235 239
b 7 4 7 8 19 64 84 94 109 135 165 187 188 223 226 230 231 259 266 271 290 356 361 368 370 373
b 8 110 140 235 349
b 9 1 2 11 16 21 25 27 30 34 38 48 58 60 63 80 92 102 106 123 128 139 152 162 166 171 183 192 199 211 220 227 233 250 254 260 261 264 274 276 281 286 287 302 306 309 316 318 321 322 324 334 336 341 346
b 10 11 16 21 25 34 38 42 48 60 63 80 92 102 106 111 113 128 148 149 152 154 162 166 171 173 178 183 196 199 211 220 245 249 250 254 260 273 274 276 281 287 288 302 306 309 315 316 318 324 334 341 343 359
b 11 4 11 16 19 21 25 34 38 42 48 63 92 106 111 113 119 135 148 149 154 162 166 173 178 187 188 189 196 211 220 223 226 245 249 250 254 260 273 274 281 287 288 290 301 306 309 315 324 327 334 341 343 359 374
b 12 4 11 16 19 21 34 38 48 63 64 84 94 106 109 119 135 162 187 188 189 211 223 226 230 250 271 281 290 301 306 309 324 327 334 361 370 374
b 13 3 11 16 21 29 34 38 48 63 64 84 94 106 108 109 119 162 167 177 189 211 230 250 271 280 281 301 304 306 309 324 327 334 360 361 370 374
b 14 3 11 29 48 63 64 84 91 94 108 109 119 143 147 157 167 177 180 189 224 230 250 271 280 281 292 301 304 306 324 327 334 360 361 370 374
b 15 3 11 29 48 63 64 85 91 108 125 130 133 134 143 147 157 167 170 177 180 224 250 280 281 292 304 306 317 324 334 360 369
b 16 11 26 29 48 63 73 85 108 125 130 133 134 170 177 250 280 281 304 306 317 324 334 360 369
b 17 11 26 29 48 63 73 85 108 116 125 130 134 146 170 177 201 250 280 281 295 304 306 317 324 334 360 369
b 18 11 26 29 48 63 72 73 85 108 116 134 146 170 201 250 280 281 295 304 306 317 324 334 360 377
b 19 11 12 26 29 37 48 63 72 73 116 126 129 146 201 228 247 250 272 280 281 295 304 306 314 324 334 360 377
b 20 12 13 26 29 37 72 73 89 116 126 129 146 197 201 228 247 272 295 304 314 339 342 348 353 360 363 377
b 21 3 16 20 21 29 34 38 84 98 106 108 109 118 119 121 162 167 177 189 211 217 238 280 294 301 304 309 327 357 360 361 374
b 22 3 16 20 21 23 29 34 38 98 106 108 118 121 138 162 177 186 211 217 238 241 280 294 304 309 332 357 360
b 23 3 16 20 21 23 29 34 38 98 106 108 118 121 138 144 162 177 186 211 217 241 280 294 304 309 332 357 360
b 24 3 16 21 23 29 34 38 98 106 108 118 131 138 144 162 186 211 217 241 280 304 309 332 357 360
b 25 3 16 21 23 29 34 38 83 98 106 108 118 131 138 144 162 186 211 241 280 304 309 332 357 360
b 26 3 16 21 23 29 34 38 53 83 100 106 107 108 131 138 144 162 186 211 225 241 268 280 304 309 332 360 362 364
b 27 3 16 21 29 31 34 38 53 55 67 83 100 106 107 108 127 162 211 212 225 268 278 280 304 309 331 362 364 366
b 28 4 19 25 42 47 52 65 92 111 112 113 119 135 136 148 149 154 166 173 178 187 188 189 196 204 220 221 223 226 234 245 249 254 260 273 274 287 288 290 301 315 327 338 341 343 359 374 375
b 29 4 17 25 32 42 45 47 52 65 92 95 111 112 113 115 135 136 148 149 154 166 173 178 190 196 204 220 221 226 234 245 249 254 260 273 274 287 288 297 298 315 335 338 340 341 343 359 365 375
b 30 17 25 32 39 42 45 52 65 70 77 92 95 111 112 113 115 148 149 154 166 173 178 190 196 204 220 221 245 249 254 260 269 273 274 285 287 288 289 297 298 315 329 335 340 341 343 345 359 365
b 31 5 17 25 32 39 42 45 52 62 65 70 77 95 111 112 113 115 148 149 154 166 173 175 178 184 190 196 204 221 245 249 254 257 260 263 269 273 274 285 288 289 297 298 315 329 335 340 343 345 359 365
b 32 5 17 25 32 39 42 45 50 57 62 70 77 103 111 113 115 124 148 149 154 166 173 175 178 184 196 245 249 254 257 260 263 269 273 274 285 288 289 297 298 311 315 326 329 335 340 343 345 359
b 33 5 17 24 32 39 42 45 50 57 61 62 70 77 88 103 111 113 115 124 148 149 154 173 175 178 179 184 196 245 249 257 263 269 273 285 288 289 297 298 311 315 326 329 335 340 343 345 359
b 34 5 17 24 32 39 42 44 45 50 57 61 62 70 77 88 103 111 113 115 124 148 149 154 173 175 178 179 184 196 243 245 249 257 269 273 285 288 289 297 298 311 315 326 329 335 340 343 345 355 359 371
b 35 17 24 32 44 45 50 57 61 70 77 88 111 113 115 142 148 149 179 196 209 243 273 288 289 297 298 311 323 335 340 345 347 355 359 371
b 36 25 39 42 50 57 70 77 103 111 113 124 148 149 154 166 173 178 196 245 249 254 260 269 273 274 285 288 289 299 308 311 315 326 329 343 345 359
b 37 25 39 42 50 57 66 77 103 111 113 124 148 149 154 160 166 173 178 196 210 245 249 254 260 269 273 274 285 288 289 299 308 311 315 326 329 343 345 359
b 38 25 36 39 42 50 57 66 82 103 111 124 149 154 160 166 173 178 196 210 215 216 245 249 254 260 269 273 274 285 299 308 311 315 326 329 343
b 39 25 36 39 42 66 82 97 103 111 122 124 154 160 166 173 178 182 215 216 245 249 254 260 269 274 285 299 308 315 326 328 329 343
b 40 25 39 42 66 97 103 122 124 145 154 160 166 173 178 182 216 245 249 254 260 269 274 285 299 308 315 326 328 329 330 343
b 41 25 39 66 97 122 145 154 160 166 173 178 182 203 216 254 260 269 274 285 299 303 308 328 329 330 343
b 42 25 28 39 66 97 122 145 154 160 166 173 178 182 203 216 254 260 269 274 285 299 303 305 308 330 343
b 43 42 97 103 122 124 145 176 182 245 249 315 326 328 330
b 44 36 66 68 82 97 111 122 160 182 185 215 299 308 328
b 45 4 17 32 45 47 95 111 113 115 135 136 148 149 190 196 226 229 234 273 288 297 298 312 335 338 340 358 359 365 375
b 46 16 21 34 38 42 60 78 80 99 102 106 111 113 128 148 149 152 154 162 171 173 178 183 191 194 196 199 211 242 245 249 256 273 276 288 302 309 310 315 316 318 343 344 354 359
b 47 42 60 78 80 99 111 113 148 149 154 173 178 191 194 196 242 245 246 249 252 256 273 288 310 315 343 344 354 359
b 48 10 42 99 101 111 113 148 149 154 173 178 191 194 196 242 245 246 249 252 256 273 288 310 315 343 344 354 359
b 49 10 42 99 101 104 111 113 148 149 154 173 178 191 194 196 242 246 249 252 256 273 288 310 315 320 343 344 354 359 376
b 50 10 33 99 101 104 111 113 148 149 191 194 196 242 246 252 256 273 288 293 310 320 344 354 359 376
b 51 10 14 33 99 101 104 111 113 148 191 194 196 242 246 252 255 256 273 288 293 310 319 320 344 354 359 376
b 52 16 21 34 38 41 42 78 79 99 102 106 111 113 128 148 149 152 154 159 162 171 173 178 183 191 194 196 199 211 242 245 249 256 273 276 288 302 309 310 315 316 318 343 344 354 359
b 53 16 21 34 38 41 42 54 78 79 99 102 106 111 113 128 148 149 152 159 162 171 173 178 183 191 194 196 199 211 242 245 249 256 273 276 288 302 309 310 315 316 318 343 344 354 359
b 54 16 21 34 38 41 42 54 56 74 78 79 99 102 106 111 128 149 152 159 162 171 183 191 194 196 199 211 214 242 244 245 249 256 273 276 302 309 310 315 316 318 344 354
b 55 16 21 34 38 40 41 54 56 74 78 79 87 99 102 105 106 128 152 159 162 164 171 183 191 194 198 199 202 206 211 214 242 244 256 265 276 302 309 310 316 318 344 354
b 56 21 35 40 41 54 56 74 78 79 87 99 102 105 106 114 128 141 150 152 159 162 164 171 191 194 198 202 206 208 214 242 244 256 265 309 310 316 325 333 344 351 354
b 57 1 2 11 16 21 25 27 30 34 38 48 58 63 92 106 123 139 162 166 183 192 211 220 227 233 240 250 254 260 261 264 274 276 281 286 287 302 306 309 318 321 322 324 334 336 341 346
b 58 2 11 16 21 25 27 34 38 48 58 59 63 92 106 123 162 166 169 183 192 211 220 227 233 240 250 251 254 260 262 264 274 276 281 286 287 302 306 309 318 321 322 324 334 336 341 346 372
b 59 11 16 18 21 25 27 34 38 46 48 58 59 63 92 106 151 155 158 162 166 169 183 211 218 220 233 240 250 251 254 260 262 274 276 277 281 287 302 306 309 318 322 324 334 341 346 367 372
b 60 6 16 18 21 25 27 34 38 46 81 92 106 137 151 155 158 162 166 169 172 211 218 220 240 248 251 253 254 260 262 270 274 277 287 309 341 350 367 372
b 61 1 2 15 27 30 58 60 80 102 123 128 139 152 171 183 192 199 227 233 261 264 276 286 302 316 318 321 322 336 346
b 62 15 58 60 80 120 152 153 171 199 316 346
b 63 1 2 15 27 30 58 102 123 128 139 183 192 227 233 235 261 264 276 286 302 318 321 322 336 346
b 64 1 2 27 30 58 123 139 140 183 192 227 233 235 261 264 276 286 302 318 321 322 336 346 349
b 65 7 8 19 51 86 119 132 156 165 187 188 189 213 222 223 231 259 266 275 279 283 290 301 327 356 368 374
b 66 4 7 8 19 51 86 119 132 135 156 165 187 188 189 213 222 223 226 231 259 266 275 279 290 301 327 356 368 374
b 67 3 22 29 31 53 55 67 71 83 100 107 108 117 127 195 212 225 268 278 282 296 307 331 352 362 364 366
b 68 4 7 8 19 64 84 94 109 119 135 165 187 188 189 223 226 230 231 259 266 271 290 301 327 356 361 368 370 374
b 69 64 84 90 94 96 109 119 168 174 181 189 200 219 230 267 271 301 313 327 361 370 374
b 70 64 84 90 91 94 96 109 119 143 147 157 168 174 180 181 189 200 219 224 230 267 271 292 301 327 361 370 374
b 71 32 43 44 45 50 57 70 77 111 113 115 142 148 149 163 196 207 209 243 258 273 288 289 297 298 311 323 335 340 345 347 355 359 371
1 69
2 64
3 19
4 8
5 60
6 8
7 68
8 64
9 10
9 57
9 61
10 11
10 46
11 12
11 28
12 68
12 13
13 14
13 21
14 70
14 15
15 16
16 17
17 18
18 19
19 20
21 22
22 23
23 24
24 25
25 26
26 27
27 67
28 29
29 30
29 45
30 31
31 32
32 33
32 36
33 34
34 35
35 71
36 37
37 38
38 39
39 40
39 44
40 41
40 43
41 42
46 47
46 52
47 48
48 49
49 50
50 51
52 53
53 54
54 55
55 56
57 58
58 59
59 60
61 62
61 63
63 64
65 66
66 68
69 70
